\ Model Transportation Problem with Carbon Emission Constraints
\ LP format - for model browsing. Use MPS format to capture full model detail.
Minimize
  2 x[0,0] + 2 x[0,1] + 2 x[0,2] + 2 x[1,0] + 2 x[1,1] + 2 x[1,2] + 2 x[2,0]
   + 2 x[2,1] + 2 x[2,2] + 2 x[3,0] + 2 x[3,1] + 2 x[3,2] + 2 x[4,0]
   + 2 x[4,1] + 2 x[4,2] + 2 x[5,0] + 2 x[5,1] + 2 x[5,2] + 2 x[6,0]
   + 2 x[6,1] + 2 x[6,2] + 2 x[7,0] + 2 x[7,1] + 2 x[7,2] + 2 x[8,0]
   + 2 x[8,1] + 2 x[8,2]
Subject To
 supply_0: x[0,0] + x[0,1] + x[0,2] <= 11.11111111111111
 supply_1: x[1,0] + x[1,1] + x[1,2] <= 11.11111111111111
 supply_2: x[2,0] + x[2,1] + x[2,2] <= 11.11111111111111
 supply_3: x[3,0] + x[3,1] + x[3,2] <= 11.11111111111111
 supply_4: x[4,0] + x[4,1] + x[4,2] <= 11.11111111111111
 supply_5: x[5,0] + x[5,1] + x[5,2] <= 11.11111111111111
 supply_6: x[6,0] + x[6,1] + x[6,2] <= 11.11111111111111
 supply_7: x[7,0] + x[7,1] + x[7,2] <= 11.11111111111111
 supply_8: x[8,0] + x[8,1] + x[8,2] <= 11.11111111111111
 demand_0: x[0,0] + x[1,0] + x[2,0] + x[3,0] + x[4,0] + x[5,0] + x[6,0]
   + x[7,0] + x[8,0] >= 1
 demand_1: x[0,1] + x[1,1] + x[2,1] + x[3,1] + x[4,1] + x[5,1] + x[6,1]
   + x[7,1] + x[8,1] >= 1
 demand_2: x[0,2] + x[1,2] + x[2,2] + x[3,2] + x[4,2] + x[5,2] + x[6,2]
   + x[7,2] + x[8,2] >= 1
 emission_limit: 8.574384251381336 x[0,0] + 10.03934434303009 x[0,1]
   + 8.574384251381336 x[0,2] + 11.71636958140841 x[1,0]
   + 8.354877852514328 x[1,1] + 11.71636958140841 x[1,2]
   + 8.106348178908089 x[2,0] + 9.659610631688933 x[2,1]
   + 8.106348178908089 x[2,2] + 5.44937620053399 x[3,0]
   + 9.426796946022996 x[3,1] + 5.44937620053399 x[3,2]
   + 8.574384251381336 x[4,0] + 10.03934434303009 x[4,1]
   + 8.574384251381336 x[4,2] + 11.71636958140841 x[5,0]
   + 8.354877852514328 x[5,1] + 11.71636958140841 x[5,2]
   + 8.106348178908089 x[6,0] + 9.659610631688933 x[6,1]
   + 8.106348178908089 x[6,2] + 5.44937620053399 x[7,0]
   + 9.426796946022996 x[7,1] + 5.44937620053399 x[7,2]
   + 8.574384251381336 x[8,0] + 10.03934434303009 x[8,1]
   + 8.574384251381336 x[8,2] <= 1e+06
Bounds
End
